ALGO = Fast
EDIFF = 1E-4
ENCUT = 500
IBRION = 2
ISIF = 3
ISMEAR = -5
SIGMA = 0.2
NSW = 100
PREC = Normal
LWAVE = .FALSE.
LCHARG = .FALSE.
