ALGO = Fast
PREC = Normal
EDIFF = 1E-4

ENCUT = 500
ISMEAR = -5
ISYM = 0
LREAL = Auto

IBRION = 0
MDALGO = 2
ISIF = 2
SMASS = 0

TEBEG = 4000.0
TEEND = 4000.0

POTIM = 3.0
NSW = 5000

NBLOCK = 10
NWRITE = 1
LWAVE = .FALSE.
LCHARG = .FALSE.
