SiC-2H wurtzite : mp-7140               
    1.000000000000000     
     1.5457436487757761   -2.6773065351565459    0.0000000000000000
     1.5457436487757761    2.6773065351565459    0.0000000000000000
     0.0000000000000000    0.0000000000000000    5.0703307704741754
   Si   C 
     2     2
Direct
  0.3333333333333357  0.6666666666666643  0.4994619154689016
  0.6666666666666643  0.3333333333333357  0.9994619154689016
  0.3333333333333357  0.6666666666666643  0.8755380845310984
  0.6666666666666643  0.3333333333333357  0.3755380845310984
 
  0.00000000E+00  0.00000000E+00  0.00000000E+00
  0.00000000E+00  0.00000000E+00  0.00000000E+00
  0.00000000E+00  0.00000000E+00  0.00000000E+00
  0.00000000E+00  0.00000000E+00  0.00000000E+00
