Si108 C108                              
    1.000000000000000     
    12.9749289900000004    0.0000000000000000    0.0000000000000000
     0.0000000000000000   12.9749289900000004    0.0000000000000000
     0.0000000000000000    0.0000000000000000   19.3846409599999987
   C    Si
   108   108
Direct
  0.3578235745508961  0.0810197957120767  0.3992526142860646
  0.3569594557192579  0.0820620755979522  0.1718057937864794
  0.3562320958063416  0.0825191207776463  0.6184367498715923
  0.3578190150911386  0.2489008947446023  0.2852643895992638
  0.3577516060792337  0.4157989470998811  0.3985330241382301
  0.3567124920758882  0.4154725115172227  0.1717706294937354
  0.3555025774410724  0.2488437818712938  0.5115996012190424
  0.3493319714751426  0.4082536611646735  0.6260343962582484
  0.4018250205396955  0.2063469427345956  0.7282704212347043
  0.3570379934626333  0.5821456334215063  0.2856709019312492
  0.3564569330391250  0.5822417060414476  0.5116400343473697
  0.4016438749663339  0.5310141756226783  0.7278141011386644
  0.3558962275358136  0.7485336373883885  0.3987180715442706
  0.3578811436647250  0.7480374299419860  0.1711324839441494
  0.3563478295345660  0.9146000792004627  0.2845696950599046
  0.3605845613093155  0.7487031121325689  0.6339922939374076
  0.3575346911388883  0.9130602273678945  0.5147542307893586
  0.3069455395093644  0.9618076457822358  0.7287914509676129
  0.5233592750946361  0.0815305472187294  0.2847678846542252
  0.6904012076998646  0.0828979806099459  0.3988078291482491
  0.6901120812233883  0.0821413911946010  0.1715003406970926
  0.5257681712231284  0.0813471564231720  0.5147265618176700
  0.6900631701283589  0.0781462521472797  0.6339228270696572
  0.4769359018345762  0.1316602854145498  0.7288142764750616
  0.5234233766577981  0.2475935927724918  0.3991358339845520
  0.5242114891339360  0.2483131423664571  0.1713137482191691
  0.5239197949396380  0.4152081898274542  0.2846768530250032
  0.6903218513853394  0.2486785972146069  0.2853076241825117
  0.6900627492834238  0.4144512309791647  0.3988299517426746
  0.6907437712972794  0.4150670385952106  0.1713429307481707
  0.5268479543861146  0.2555454254847832  0.6247131341023173
  0.5241967504056332  0.4145801146605173  0.5120348024535447
  0.6902216578871554  0.2486787103340350  0.5138847273419839
  0.6913937147613388  0.4175051552259070  0.6360532381737688
  0.4771420391024913  0.4570091877047521  0.7281939768409269
  0.7138218525758404  0.2174896746176158  0.7357032314940478
  0.5245266094523405  0.5826063791699541  0.3993732364726050
  0.5236437992126872  0.5822745391870663  0.1718703834958574
  0.6900340094946750  0.5814520479976697  0.2855106817300354
  0.5217327946199591  0.5802908989859301  0.6178152593569974
  0.6929783721017517  0.5793647638351802  0.5129993146154265
  0.6435466557252506  0.6273089466596923  0.7281866656360892
  0.5240917449153071  0.7491305272103426  0.2856032819270412
  0.5227430983516249  0.9160108801214166  0.3987495605439148
  0.6903656077461671  0.7485235133285622  0.4001812220557970
  0.5239354459172143  0.9150356734350980  0.1719246551890165
  0.6903491426629386  0.7486886667019756  0.1725364394125809
  0.6906862458328422  0.9158143273473932  0.2856502109243746
  0.5211252349214939  0.7513636513065838  0.5126258737868983
  0.5227218172284291  0.9160643798105859  0.6382288103647584
  0.6899491959620520  0.7488103878090049  0.6172517960621429
  0.6873039758700007  0.9175415799483648  0.5126041834227683
  0.5683810795037267  0.7020774417747238  0.7281683153614105
  0.7367586908998387  0.8703683171162224  0.7281082451335550
  0.8568527874447750  0.0821505499456457  0.2848217845517984
  0.8566087065669327  0.0823963005909611  0.5116173423534512
  0.9076862964400755  0.0370932458780402  0.7277551207105972
  0.8570426959274489  0.2497964758702703  0.3991703174119361
  0.8566842139142704  0.2489971188358494  0.1714604266370674
  0.8572714813503610  0.4158319287425808  0.2848007909244898
  0.8546036605815880  0.2402603374998346  0.6238892640886072
  0.8542092399711353  0.4161647356807560  0.5148954300656778
  0.9026365161657639  0.3669435810133974  0.7278623602537341
  0.8576436928908623  0.5814086171755987  0.3988187883510053
  0.8568669334696853  0.5822998582625779  0.1718697270777772
  0.8570336344387326  0.5817832350421367  0.6379948272017821
  0.8566281839295155  0.7481789859709819  0.2855517498581331
  0.8562517582150033  0.9144846613802206  0.3993967124717659
  0.8570449928571375  0.9151475151158661  0.1719692169027859
  0.8595529655567166  0.7458671695250112  0.5129554332791245
  0.8584581972154858  0.9170162698153149  0.6177354664743726
  0.8115283959217746  0.7952218961765529  0.7281527090370383
  0.0230735121542510  0.0813243282257628  0.3985570489732581
  0.0239602197095684  0.0820768477912465  0.1718624659905159
  0.1909317831990011  0.0821397066512394  0.2852767444572650
  0.0304752383916551  0.0893969656635138  0.6260018635404582
  0.1899220206971840  0.0831999475526480  0.5115879694033274
  0.2322974527494037  0.0369542629266750  0.7282660328291846
  0.0228830258303485  0.2485649977030955  0.2854263165766230
  0.0224947958054065  0.4165712961334275  0.3993960114557016
  0.1902756512540038  0.2487269637577861  0.3982679894433257
  0.0237599868268248  0.4153652814611603  0.1719198772410793
  0.1903368651190883  0.2488082662704420  0.1723876628601817
  0.1897380237087122  0.4153066216226151  0.2853672742159568
  0.0247781701223861  0.2483145914704499  0.5114201911707166
  0.0243076711278317  0.4145315116479480  0.6179234616941802
  0.1898074574449593  0.2489282015547919  0.6353518078830774
  0.1906609644218783  0.4142020170145906  0.5113941895895463
  0.9771894761774802  0.2918758497992296  0.7287834711224905
  0.1468936292601986  0.4614692985218126  0.7287805444095201
  0.0242306662491766  0.5828325143956443  0.2846271311906728
  0.1891761094623032  0.5819937694253799  0.3990498104060557
  0.1910931981779252  0.5815740138611841  0.1711485476381247
  0.0227169184424302  0.5846281578584541  0.5148740543052136
  0.1985583435539505  0.5842059507595520  0.6239155366203881
  0.0718295358973321  0.5360113249193806  0.7278647963603747
  0.0246859575260396  0.7488140053383004  0.3987563673500725
  0.0228225653946323  0.7494165149461877  0.1710926499609467
  0.0236635167956197  0.9152107952300506  0.2856375060113077
  0.1903233293428045  0.7487357424031299  0.2839780716414889
  0.1913933097983091  0.9153708456087627  0.3990694344727013
  0.1895693794630168  0.9159775352181032  0.1710464859469882
  0.0212868268950782  0.7473586325077464  0.6360526921602472
  0.0242989381575798  0.9146193793332471  0.5120250330212696
  0.1902521610280896  0.7486356580216387  0.5138433116973331
  0.1831342750138043  0.9118013848683770  0.6247340164054127
  0.9817166074046209  0.9616223676035033  0.7281666086998759
  0.2212278107255737  0.7248105049075275  0.7357651344919077
  0.2643390784765188  0.0088086110463105  0.1140238111918806
  0.4488378087064711  0.1562426404494049  0.1141739985452938
  0.2742770245498418  0.9982319285276577  0.3418903142220166
  0.2745581517351496  0.1659926709216687  0.2285531767044838
  0.4395976104497005  0.9977332767182634  0.2280997188541656
  0.4406031841357860  0.1646421902938490  0.3419716507234417
  0.2700136369310986  0.9969478648908215  0.5679641689842984
  0.2807439157583989  0.1579870636885232  0.6845667579356914
  0.4300548201598280  0.0086301221176188  0.6866876445457760
  0.2737726923187206  0.1649582576780121  0.4548022376725859
  0.4407548142479183  0.9981074741831678  0.4573771418045490
  0.4417589217014943  0.1687201342903393  0.5679414954957488
  0.2646409302389750  0.3402892517553712  0.1145363958050531
  0.2739676616769784  0.3322076232205807  0.3417472967894400
  0.4406141566119451  0.3318376134721924  0.2274647019190958
  0.2700807860491503  0.3288139677930454  0.5696614750841554
  0.4388390641398773  0.3318348483472111  0.6845840169456587
  0.4402026167362688  0.3317210378786943  0.4554059076816610
  0.2820375052813740  0.6572096335927806  0.1131879993713934
  0.4342743339776337  0.5048453838532075  0.1140497415331868
  0.2736224072320845  0.4987087955102771  0.2289087281136186
  0.2726722104527307  0.6655535348633055  0.3417425910776311
  0.4411920665378690  0.4988592625670448  0.3419479759448215
  0.4405642895120257  0.6654800337034489  0.2289978385292868
  0.2736375307972275  0.4983559479657790  0.6863117851168995
  0.2735834983678943  0.4986244698812737  0.4550521470877999
  0.2779197278445004  0.6682583154656385  0.5699346402170673
  0.4366217979340145  0.4949716723137695  0.5676783966578158
  0.4461149793317986  0.6552759192530204  0.6855041133320295
  0.4396719654323452  0.6660330268619508  0.4554788316049924
  0.4508574811528746  0.8224187700344243  0.1141396471276622
  0.2735731373658327  0.8318534954989673  0.2266411165006387
  0.4395793410640094  0.8321783836771328  0.3419033755170230
  0.2658772077284410  0.8346172775566577  0.6876232533965297
  0.2737437226613387  0.8315906513757872  0.4564907220792028
  0.4413770611986135  0.8327452446698196  0.5747609469458476
  0.5987055064118334  0.0062849613231477  0.1142709135481502
  0.6067100652507786  0.9991827874768462  0.3420271494865639
  0.6070686541938455  0.1652608216348621  0.2285591469564576
  0.6059908396337685  0.9973786505525263  0.5747240085032930
  0.6040597077744185  0.1727657259456637  0.6875707262353339
  0.6073272334369533  0.1652252226419816  0.4564999474849366
  0.6127166140975548  0.3264458140376169  0.1132666063563357
  0.6066069140649435  0.3316090040420491  0.3419528007959349
  0.6098757681125888  0.3357933649694943  0.5706610897340315
  0.5993715084295599  0.6738340592591417  0.1146059497846641
  0.6072877157655302  0.4985177053975341  0.2276070036007901
  0.6073988349186433  0.6655253149610515  0.3424007762351116
  0.5976081609075558  0.5058576947190048  0.6845950288402122
  0.6077670902269972  0.4980617322587536  0.4558097753111625
  0.6059168248901013  0.6645024953165508  0.5645809364490814
  0.6076868278184152  0.8327856521144564  0.2288309712754205
  0.6151688778225405  0.8236048328919506  0.6851420814992554
  0.6052707299094132  0.8333733044503293  0.4557137105091028
  0.7684115016473678  0.1705410554407883  0.1135592866671845
  0.9453259926111398  0.9936731881091856  0.1140442625023761
  0.7734545676311939  0.9987718624666150  0.2278052741523567
  0.7739466998027877  0.1657667401793691  0.3419733719503730
  0.9395393076331038  0.9983617499381483  0.3420048128256051
  0.9401548274406745  0.1655881105124051  0.2276714822636921
  0.7834676753737825  0.9926211199094211  0.6854152842055811
  0.7727029771050421  0.9990533025737640  0.4555673685339041
  0.7705450717355622  0.1609089614655224  0.5699201025625763
  0.9438082758455066  0.0021393943524675  0.5676345872702353
  0.9403832520838056  0.1651234399870207  0.6862960945620191
  0.9403520619297240  0.1654082867722688  0.4551486624262426
  0.9323918079740607  0.3406352201257297  0.1142009663222237
  0.7736259257441560  0.3320814158511625  0.2285685847413780
  0.9399092839271106  0.3328034738708837  0.3420584695661360
  0.7757775772384415  0.3207695111965604  0.6883339223874282
  0.7730241321218080  0.3321913839834166  0.4565401968828760
  0.9387471614887650  0.3289368719155749  0.5675032372361823
  0.7824454002704105  0.4907006735488197  0.1142435878460003
  0.9300488344072037  0.6747748229906499  0.1140437082078466
  0.7738054100195094  0.4981630971957406  0.3420538877505310
  0.7730476590356559  0.6645210087616233  0.2287553093657166
  0.9410358327286191  0.4996482207111498  0.2281529206549081
  0.9409387486030374  0.6651943177047621  0.3419841758344932
  0.7735467477452043  0.4992265417969413  0.5756062803375210
  0.7647214592120296  0.6740607161602099  0.6851196638971674
  0.9495089086968614  0.4892383617189997  0.6853751772878893
  0.7752221808599384  0.6637074900399654  0.4561435408052260
  0.9393423181001247  0.4995327844247922  0.4575859894450969
  0.9396084287505215  0.6652473856204291  0.5755934276666955
  0.7812221051180435  0.8236896683637469  0.1146732747749058
  0.7733283925814836  0.8316113763925053  0.3424444851965670
  0.9401005018815443  0.8319095140670343  0.2289850135296329
  0.7742569177407390  0.8328007754822729  0.5645326683198468
  0.9329109022981097  0.8411550800764555  0.6845356972166904
  0.9409390446702536  0.8311423604914745  0.4557271911287620
  0.1157256947758293  0.1574977629487847  0.1146270633989732
  0.1069914863050399  0.9987467283212765  0.2288807335396566
  0.1067329068675981  0.1651230765186492  0.3417807777940451
  0.1068668850751970 -0.0001144333284754  0.6845661713468161
  0.1070634118810761  0.9985296964125452  0.4553268652154260
  0.1099683803914802  0.1686658758634171  0.5696605788174588
  0.1061375754829789  0.3314597900939908  0.2286729341686836
  0.0988192270607742  0.3398997707643726  0.6849421276430476
  0.1065595456651404  0.3324487470479077  0.4546685542842437
  0.1162996768979085  0.4887153559245301  0.1142214317220220
  0.1062116102822687  0.4991891270611934  0.3419431432136301
  0.1070369533616916  0.6656196160338008  0.2266966630573945
  0.1099320500278944  0.5000868929818821  0.5675002300964763
  0.1179591298100437  0.6629260700998675  0.6883549228793399
  0.1067215437189337  0.6657707476777306  0.4565155197006589
  0.0981808712873103  0.8406996066072752  0.1132945652230762
  0.1078939017869332  0.8318244006438629  0.3417775962384755
  0.1029952187074978  0.8288196535233241  0.5706253436909994
 
  0.00000000E+00  0.00000000E+00  0.00000000E+00
  0.00000000E+00  0.00000000E+00  0.00000000E+00
  0.00000000E+00  0.00000000E+00  0.00000000E+00
  0.00000000E+00  0.00000000E+00  0.00000000E+00
  0.00000000E+00  0.00000000E+00  0.00000000E+00
  0.00000000E+00  0.00000000E+00  0.00000000E+00
  0.00000000E+00  0.00000000E+00  0.00000000E+00
  0.00000000E+00  0.00000000E+00  0.00000000E+00
  0.00000000E+00  0.00000000E+00  0.00000000E+00
  0.00000000E+00  0.00000000E+00  0.00000000E+00
  0.00000000E+00  0.00000000E+00  0.00000000E+00
  0.00000000E+00  0.00000000E+00  0.00000000E+00
  0.00000000E+00  0.00000000E+00  0.00000000E+00
  0.00000000E+00  0.00000000E+00  0.00000000E+00
  0.00000000E+00  0.00000000E+00  0.00000000E+00
  0.00000000E+00  0.00000000E+00  0.00000000E+00
  0.00000000E+00  0.00000000E+00  0.00000000E+00
  0.00000000E+00  0.00000000E+00  0.00000000E+00
  0.00000000E+00  0.00000000E+00  0.00000000E+00
  0.00000000E+00  0.00000000E+00  0.00000000E+00
  0.00000000E+00  0.00000000E+00  0.00000000E+00
  0.00000000E+00  0.00000000E+00  0.00000000E+00
  0.00000000E+00  0.00000000E+00  0.00000000E+00
  0.00000000E+00  0.00000000E+00  0.00000000E+00
  0.00000000E+00  0.00000000E+00  0.00000000E+00
  0.00000000E+00  0.00000000E+00  0.00000000E+00
  0.00000000E+00  0.00000000E+00  0.00000000E+00
  0.00000000E+00  0.00000000E+00  0.00000000E+00
  0.00000000E+00  0.00000000E+00  0.00000000E+00
  0.00000000E+00  0.00000000E+00  0.00000000E+00
  0.00000000E+00  0.00000000E+00  0.00000000E+00
  0.00000000E+00  0.00000000E+00  0.00000000E+00
  0.00000000E+00  0.00000000E+00  0.00000000E+00
  0.00000000E+00  0.00000000E+00  0.00000000E+00
  0.00000000E+00  0.00000000E+00  0.00000000E+00
  0.00000000E+00  0.00000000E+00  0.00000000E+00
  0.00000000E+00  0.00000000E+00  0.00000000E+00
  0.00000000E+00  0.00000000E+00  0.00000000E+00
  0.00000000E+00  0.00000000E+00  0.00000000E+00
  0.00000000E+00  0.00000000E+00  0.00000000E+00
  0.00000000E+00  0.00000000E+00  0.00000000E+00
  0.00000000E+00  0.00000000E+00  0.00000000E+00
  0.00000000E+00  0.00000000E+00  0.00000000E+00
  0.00000000E+00  0.00000000E+00  0.00000000E+00
  0.00000000E+00  0.00000000E+00  0.00000000E+00
  0.00000000E+00  0.00000000E+00  0.00000000E+00
  0.00000000E+00  0.00000000E+00  0.00000000E+00
  0.00000000E+00  0.00000000E+00  0.00000000E+00
  0.00000000E+00  0.00000000E+00  0.00000000E+00
  0.00000000E+00  0.00000000E+00  0.00000000E+00
  0.00000000E+00  0.00000000E+00  0.00000000E+00
  0.00000000E+00  0.00000000E+00  0.00000000E+00
  0.00000000E+00  0.00000000E+00  0.00000000E+00
  0.00000000E+00  0.00000000E+00  0.00000000E+00
  0.00000000E+00  0.00000000E+00  0.00000000E+00
  0.00000000E+00  0.00000000E+00  0.00000000E+00
  0.00000000E+00  0.00000000E+00  0.00000000E+00
  0.00000000E+00  0.00000000E+00  0.00000000E+00
  0.00000000E+00  0.00000000E+00  0.00000000E+00
  0.00000000E+00  0.00000000E+00  0.00000000E+00
  0.00000000E+00  0.00000000E+00  0.00000000E+00
  0.00000000E+00  0.00000000E+00  0.00000000E+00
  0.00000000E+00  0.00000000E+00  0.00000000E+00
  0.00000000E+00  0.00000000E+00  0.00000000E+00
  0.00000000E+00  0.00000000E+00  0.00000000E+00
  0.00000000E+00  0.00000000E+00  0.00000000E+00
  0.00000000E+00  0.00000000E+00  0.00000000E+00
  0.00000000E+00  0.00000000E+00  0.00000000E+00
  0.00000000E+00  0.00000000E+00  0.00000000E+00
  0.00000000E+00  0.00000000E+00  0.00000000E+00
  0.00000000E+00  0.00000000E+00  0.00000000E+00
  0.00000000E+00  0.00000000E+00  0.00000000E+00
  0.00000000E+00  0.00000000E+00  0.00000000E+00
  0.00000000E+00  0.00000000E+00  0.00000000E+00
  0.00000000E+00  0.00000000E+00  0.00000000E+00
  0.00000000E+00  0.00000000E+00  0.00000000E+00
  0.00000000E+00  0.00000000E+00  0.00000000E+00
  0.00000000E+00  0.00000000E+00  0.00000000E+00
  0.00000000E+00  0.00000000E+00  0.00000000E+00
  0.00000000E+00  0.00000000E+00  0.00000000E+00
  0.00000000E+00  0.00000000E+00  0.00000000E+00
  0.00000000E+00  0.00000000E+00  0.00000000E+00
  0.00000000E+00  0.00000000E+00  0.00000000E+00
  0.00000000E+00  0.00000000E+00  0.00000000E+00
  0.00000000E+00  0.00000000E+00  0.00000000E+00
  0.00000000E+00  0.00000000E+00  0.00000000E+00
  0.00000000E+00  0.00000000E+00  0.00000000E+00
  0.00000000E+00  0.00000000E+00  0.00000000E+00
  0.00000000E+00  0.00000000E+00  0.00000000E+00
  0.00000000E+00  0.00000000E+00  0.00000000E+00
  0.00000000E+00  0.00000000E+00  0.00000000E+00
  0.00000000E+00  0.00000000E+00  0.00000000E+00
  0.00000000E+00  0.00000000E+00  0.00000000E+00
  0.00000000E+00  0.00000000E+00  0.00000000E+00
  0.00000000E+00  0.00000000E+00  0.00000000E+00
  0.00000000E+00  0.00000000E+00  0.00000000E+00
  0.00000000E+00  0.00000000E+00  0.00000000E+00
  0.00000000E+00  0.00000000E+00  0.00000000E+00
  0.00000000E+00  0.00000000E+00  0.00000000E+00
  0.00000000E+00  0.00000000E+00  0.00000000E+00
  0.00000000E+00  0.00000000E+00  0.00000000E+00
  0.00000000E+00  0.00000000E+00  0.00000000E+00
  0.00000000E+00  0.00000000E+00  0.00000000E+00
  0.00000000E+00  0.00000000E+00  0.00000000E+00
  0.00000000E+00  0.00000000E+00  0.00000000E+00
  0.00000000E+00  0.00000000E+00  0.00000000E+00
  0.00000000E+00  0.00000000E+00  0.00000000E+00
  0.00000000E+00  0.00000000E+00  0.00000000E+00
  0.00000000E+00  0.00000000E+00  0.00000000E+00
  0.00000000E+00  0.00000000E+00  0.00000000E+00
  0.00000000E+00  0.00000000E+00  0.00000000E+00
  0.00000000E+00  0.00000000E+00  0.00000000E+00
  0.00000000E+00  0.00000000E+00  0.00000000E+00
  0.00000000E+00  0.00000000E+00  0.00000000E+00
  0.00000000E+00  0.00000000E+00  0.00000000E+00
  0.00000000E+00  0.00000000E+00  0.00000000E+00
  0.00000000E+00  0.00000000E+00  0.00000000E+00
  0.00000000E+00  0.00000000E+00  0.00000000E+00
  0.00000000E+00  0.00000000E+00  0.00000000E+00
  0.00000000E+00  0.00000000E+00  0.00000000E+00
  0.00000000E+00  0.00000000E+00  0.00000000E+00
  0.00000000E+00  0.00000000E+00  0.00000000E+00
  0.00000000E+00  0.00000000E+00  0.00000000E+00
  0.00000000E+00  0.00000000E+00  0.00000000E+00
  0.00000000E+00  0.00000000E+00  0.00000000E+00
  0.00000000E+00  0.00000000E+00  0.00000000E+00
  0.00000000E+00  0.00000000E+00  0.00000000E+00
  0.00000000E+00  0.00000000E+00  0.00000000E+00
  0.00000000E+00  0.00000000E+00  0.00000000E+00
  0.00000000E+00  0.00000000E+00  0.00000000E+00
  0.00000000E+00  0.00000000E+00  0.00000000E+00
  0.00000000E+00  0.00000000E+00  0.00000000E+00
  0.00000000E+00  0.00000000E+00  0.00000000E+00
  0.00000000E+00  0.00000000E+00  0.00000000E+00
  0.00000000E+00  0.00000000E+00  0.00000000E+00
  0.00000000E+00  0.00000000E+00  0.00000000E+00
  0.00000000E+00  0.00000000E+00  0.00000000E+00
  0.00000000E+00  0.00000000E+00  0.00000000E+00
  0.00000000E+00  0.00000000E+00  0.00000000E+00
  0.00000000E+00  0.00000000E+00  0.00000000E+00
  0.00000000E+00  0.00000000E+00  0.00000000E+00
  0.00000000E+00  0.00000000E+00  0.00000000E+00
  0.00000000E+00  0.00000000E+00  0.00000000E+00
  0.00000000E+00  0.00000000E+00  0.00000000E+00
  0.00000000E+00  0.00000000E+00  0.00000000E+00
  0.00000000E+00  0.00000000E+00  0.00000000E+00
  0.00000000E+00  0.00000000E+00  0.00000000E+00
  0.00000000E+00  0.00000000E+00  0.00000000E+00
  0.00000000E+00  0.00000000E+00  0.00000000E+00
  0.00000000E+00  0.00000000E+00  0.00000000E+00
  0.00000000E+00  0.00000000E+00  0.00000000E+00
  0.00000000E+00  0.00000000E+00  0.00000000E+00
  0.00000000E+00  0.00000000E+00  0.00000000E+00
  0.00000000E+00  0.00000000E+00  0.00000000E+00
  0.00000000E+00  0.00000000E+00  0.00000000E+00
  0.00000000E+00  0.00000000E+00  0.00000000E+00
  0.00000000E+00  0.00000000E+00  0.00000000E+00
  0.00000000E+00  0.00000000E+00  0.00000000E+00
  0.00000000E+00  0.00000000E+00  0.00000000E+00
  0.00000000E+00  0.00000000E+00  0.00000000E+00
  0.00000000E+00  0.00000000E+00  0.00000000E+00
  0.00000000E+00  0.00000000E+00  0.00000000E+00
  0.00000000E+00  0.00000000E+00  0.00000000E+00
  0.00000000E+00  0.00000000E+00  0.00000000E+00
  0.00000000E+00  0.00000000E+00  0.00000000E+00
  0.00000000E+00  0.00000000E+00  0.00000000E+00
  0.00000000E+00  0.00000000E+00  0.00000000E+00
  0.00000000E+00  0.00000000E+00  0.00000000E+00
  0.00000000E+00  0.00000000E+00  0.00000000E+00
  0.00000000E+00  0.00000000E+00  0.00000000E+00
  0.00000000E+00  0.00000000E+00  0.00000000E+00
  0.00000000E+00  0.00000000E+00  0.00000000E+00
  0.00000000E+00  0.00000000E+00  0.00000000E+00
  0.00000000E+00  0.00000000E+00  0.00000000E+00
  0.00000000E+00  0.00000000E+00  0.00000000E+00
  0.00000000E+00  0.00000000E+00  0.00000000E+00
  0.00000000E+00  0.00000000E+00  0.00000000E+00
  0.00000000E+00  0.00000000E+00  0.00000000E+00
  0.00000000E+00  0.00000000E+00  0.00000000E+00
  0.00000000E+00  0.00000000E+00  0.00000000E+00
  0.00000000E+00  0.00000000E+00  0.00000000E+00
  0.00000000E+00  0.00000000E+00  0.00000000E+00
  0.00000000E+00  0.00000000E+00  0.00000000E+00
  0.00000000E+00  0.00000000E+00  0.00000000E+00
  0.00000000E+00  0.00000000E+00  0.00000000E+00
  0.00000000E+00  0.00000000E+00  0.00000000E+00
  0.00000000E+00  0.00000000E+00  0.00000000E+00
  0.00000000E+00  0.00000000E+00  0.00000000E+00
  0.00000000E+00  0.00000000E+00  0.00000000E+00
  0.00000000E+00  0.00000000E+00  0.00000000E+00
  0.00000000E+00  0.00000000E+00  0.00000000E+00
  0.00000000E+00  0.00000000E+00  0.00000000E+00
  0.00000000E+00  0.00000000E+00  0.00000000E+00
  0.00000000E+00  0.00000000E+00  0.00000000E+00
  0.00000000E+00  0.00000000E+00  0.00000000E+00
  0.00000000E+00  0.00000000E+00  0.00000000E+00
  0.00000000E+00  0.00000000E+00  0.00000000E+00
  0.00000000E+00  0.00000000E+00  0.00000000E+00
  0.00000000E+00  0.00000000E+00  0.00000000E+00
  0.00000000E+00  0.00000000E+00  0.00000000E+00
  0.00000000E+00  0.00000000E+00  0.00000000E+00
  0.00000000E+00  0.00000000E+00  0.00000000E+00
  0.00000000E+00  0.00000000E+00  0.00000000E+00
  0.00000000E+00  0.00000000E+00  0.00000000E+00
  0.00000000E+00  0.00000000E+00  0.00000000E+00
  0.00000000E+00  0.00000000E+00  0.00000000E+00
  0.00000000E+00  0.00000000E+00  0.00000000E+00
  0.00000000E+00  0.00000000E+00  0.00000000E+00
  0.00000000E+00  0.00000000E+00  0.00000000E+00
  0.00000000E+00  0.00000000E+00  0.00000000E+00
  0.00000000E+00  0.00000000E+00  0.00000000E+00
  0.00000000E+00  0.00000000E+00  0.00000000E+00
  0.00000000E+00  0.00000000E+00  0.00000000E+00
  0.00000000E+00  0.00000000E+00  0.00000000E+00
  0.00000000E+00  0.00000000E+00  0.00000000E+00
  0.00000000E+00  0.00000000E+00  0.00000000E+00
