Si108 C108
1.0
  12.9749289900000004    0.0000000000000000    0.0000000000000000
   0.0000000000000000   12.9749289900000004    0.0000000000000000
   0.0000000000000000    0.0000000000000000   19.3846409599999987
C Si
108 108
direct
   0.3576043663573067    0.0813191425412187    0.3996043071411109 C
   0.3573094244733898    0.0817104163588952    0.1743308775732930 C
   0.3569938612820108    0.0819215558573936    0.6262956732111690 C
   0.3574557381835814    0.2485339829208576    0.2845368872903798 C
   0.3572058239064012    0.4150938609491380    0.3993781554156781 C
   0.3570775403526890    0.4152152342530855    0.1742064723802860 C
   0.3570234599025732    0.2480283500958104    0.5148519206826723 C
   0.3540464925503997    0.4118831743987834    0.6255460415811591 C
   0.4001216194709980    0.2081752256279593    0.7146103251839646 C
   0.3572125869491946    0.5818200327584221    0.2844985997615300 C
   0.3570677753666843    0.5818309098892417    0.5146641870017902 C
   0.3980502932987535    0.5379084760601839    0.7156002599493079 C
   0.3571472640483407    0.7483899069878455    0.3996747985163611 C
   0.3572677379254005    0.7481801663409335    0.1742359059922459 C
   0.3570353289463359    0.9146664747950964    0.2844779060586738 C
   0.3583010769140248    0.7487297508516076    0.6288687464036476 C
   0.3573387140363841    0.9143422109780656    0.5161920094701615 C
   0.3119924342645670    0.9581553918007223    0.7134777604877548 C
   0.5235576298903506    0.0811207530161597    0.2848397425257239 C
   0.6905662518003499    0.0816407358234028    0.3995322609266424 C
   0.6893056907589289    0.0819483536919149    0.1735372126283633 C
   0.5245938421124261    0.0815790160251197    0.5161850869792948 C
   0.6901932840558844    0.0805810652841191    0.6288229230117245 C
   0.4807756917057316    0.1269030058868939    0.7134834990516120 C
   0.5238192613800193    0.2480806594379674    0.3995040184639045 C
   0.5238381462617931    0.2480121365196003    0.1743823079816280 C
   0.5238369686060224    0.4149425290997296    0.2845521313178864 C
   0.6905210692794704    0.2484249703782001    0.2847533818856968 C
   0.6905629508188931    0.4149042483507265    0.3998602561685001 C
   0.6907045076629741    0.4150194181525151    0.1743622142382976 C
   0.5265562328137259    0.2513404938488222    0.6257530828159327 C
   0.5239695712585167    0.4149263895123637    0.5146516554310222 C
   0.6905550124324804    0.2483031423511475    0.5151000599187781 C
   0.6908823521815667    0.4161181609672918    0.6288661515658013 C
   0.4800643637279744    0.4558895462594744    0.7156049156971335 C
   0.6905736368118651    0.2482921272619620    0.7291896083692024 C
   0.5239380242650561    0.5818770172706741    0.3994408762059424 C
   0.5236540782023964    0.5817106587494318    0.1741967693375323 C
   0.6899775965556171    0.5810260970067938    0.2850086123029230 C
   0.5221821556959442    0.5800308653558188    0.6257391846993486 C
   0.6911143626998763    0.5812719943063056    0.5156021842562928 C
   0.6467034028831320    0.6243195008036803    0.7128399612101972 C
   0.5241972549708729    0.7487469486335894    0.2843759748439519 C
   0.5238771954157724    0.9150734057312171    0.3999004457186501 C
   0.6904359227633815    0.7484095363823644    0.3996801027157121 C
   0.5232081489796269    0.9148398907730747    0.1740666106203702 C
   0.6905417113962949    0.7472586769047127    0.1743956881623873 C
   0.6909264988586269    0.9154288435146187    0.2838144457435440 C
   0.5234106202225929    0.7489921931356943    0.5155701841794650 C
   0.5232462216350057    0.9156783408338329    0.6306867248780862 C
   0.6905231872101367    0.7483996658081132    0.6256116605422027 C
   0.6899326067140196    0.9154835351434166    0.5154915910291897 C
   0.5664775896395869    0.7045584308820174    0.7128419024377948 C
   0.7343591743233117    0.8724527778706557    0.7128487021510457 C
   0.8569846593048676    0.0814748135280546    0.2834861260179874 C
   0.8570688455074158    0.0818127991928224    0.5145164514824215 C
   0.9009692113929635    0.0408669550645456    0.7156118031086814 C
   0.8572800821162722    0.2485407675437305    0.3992678572675509 C
   0.8569446082186227    0.2496313438398248    0.1738125517492174 C
   0.8576939078878150    0.4158040536605666    0.2847044642915068 C
   0.8545243198282814    0.2453539786193466    0.6257104738245305 C
   0.8565348973058233    0.4150722762452667    0.5161933878810413 C
   0.9003044909920543    0.3698045233001310    0.7134603843598866 C
   0.8572808220047146    0.5815744822816176    0.4001771369408949 C
   0.8564764638453718    0.5817882784420542    0.1743859464292085 C
   0.8578300550683785    0.5810629095396691    0.6307018198184879 C
   0.8568217273919739    0.7478029218871278    0.2852634914110888 C
   0.8569963487715396    0.9149704618152211    0.3993114918131556 C
   0.8582153234581980    0.9136405138815331    0.1738535207824659 C
   0.8576161764412092    0.7477935784833918    0.5156322425896507 C
   0.8588568999944870    0.9167510064346024    0.6257007284802453 C
   0.8145879355598693    0.7922169453044536    0.7128322416965726 C
   0.0237650379618764    0.0817991914112202    0.3992914589427609 C
   0.0253208892513561    0.0817463148212575    0.1738433606768232 C
   0.1911293596991007    0.0821984352147117    0.2849075049363205 C
   0.0269896390392500    0.0848588913934395    0.6255029131063153 C
   0.1908600688226194    0.0818864142392505    0.5148552604401707 C
   0.2307049443050555    0.0387932119233895    0.7145995909124128 C
   0.0233494372287890    0.2479959691864179    0.2839281161491268 C
   0.0235408163108567    0.4154174218721485    0.3994045546665622 C
   0.1904759449477341    0.2484548688077252    0.3996036999593724 C
   0.0239688302139987    0.4152478502312019    0.1740592878125714 C
   0.1909718389911589    0.2486437931557419    0.1743281197197887 C
   0.1902893281267970    0.4150025718175434    0.2844297674317100 C
   0.0240051040156020    0.2487345751554668    0.5147951881384756 C
   0.0240770651030746    0.4148077083233424    0.6262757326819222 C
   0.1905241378897134    0.2483679758466254    0.6292973388143682 C
   0.1901748781748053    0.4148975007222756    0.5148521069125853 C
   0.9809468144148973    0.2885273886959439    0.7145931873891153 C
   0.1503351680385574    0.4579446187782181    0.7145947019902916 C
   0.0239562937292037    0.5820814314915184    0.2842910302734852 C
   0.1902506674142500    0.5816733221289098    0.3993527744967839 C
   0.1908288509253722    0.5815362231126939    0.1738623710882495 C
   0.0237885155470126    0.5823678515561571    0.5161753860000304 C
   0.1935044516956543    0.5843921015555400    0.6257518117064986 C
   0.0690637567797587    0.5385895102305296    0.7134720508127482 C
   0.0239342735701554    0.7483367660419080    0.3998357924706180 C
   0.0232717867074816    0.7489738693359893    0.1742753031624889 C
   0.0243755623051005    0.9153532176672051    0.2851367745941475 C
   0.1902849188541108    0.7481879382524467    0.2842638964203957 C
   0.1908848227153188    0.9150870736287552    0.3995335175916511 C
   0.1907282715695233    0.9155138644038160    0.1743373997472275 C
   0.0227645754537575    0.7480247034477220    0.6288665750969886 C
   0.0239602991461150    0.9149520116179071    0.5146813789632346 C
   0.1905525234015173    0.7483630266865915    0.5150748389203077 C
   0.1875493555205962    0.9123584775780726    0.6257572366199761 C
   0.9830033821248683    0.9588476884604514    0.7156007618930901 C
   0.1905338997928497    0.7483719176793737    0.7292183321408291 C
   0.2739229295774358    0.9987019312388545    0.1226276656299751 Si
   0.4406022402439368    0.1649240170523661    0.1226063172851255 Si
   0.2741888555029386    0.9982718911203844    0.3414656765456026 Si
   0.2741152735973471    0.1652493475419013    0.2282075122839933 Si
   0.4403793234170140    0.9980989044318462    0.2282600378892960 Si
   0.4405308525700070    0.1648596082220254    0.3414592580620075 Si
   0.2728992623180437    0.9972779126554587    0.5731814095977974 Si
   0.2734942305067675    0.1654136837014011    0.6826799452879833 Si
   0.4400104150396587    0.9989036348475616    0.6834186027658053 Si
   0.2740900896444906    0.1648235163096642    0.4572350180892904 Si
   0.4407637586616187    0.9981586681500597    0.4582708159687267 Si
   0.4416412871636071    0.1659996106075028    0.5731735270685148 Si
   0.2734251850421880    0.3322697937940700    0.1225500975180301 Si
   0.2737962021016039    0.3317485624250804    0.3414151783185774 Si
   0.4407308012558148    0.3318094082301409    0.2278268645322384 Si
   0.2720385308251310    0.3298956867740053    0.5719701279419519 Si
   0.4401378438680766    0.3322848628553458    0.6797589373561449 Si
   0.4404869132158541    0.3315564095430167    0.4573296079248094 Si
   0.2763723079150355    0.6630841067901675    0.1226216985346733 Si
   0.4389574397200612    0.4997928400993892    0.1226584069783049 Si
   0.2738109443788178    0.4984282931324158    0.2282418306910957 Si
   0.2737935446689485    0.6650987952728672    0.3413466952343284 Si
   0.4405640304009094    0.4984373421222091    0.3412567704323372 Si
   0.4406388053766142    0.6651858261923328    0.2282234315883868 Si
   0.2744502997083454    0.4979737126098908    0.6797566257322106 Si
   0.2736882307977856    0.4983682342295424    0.4573210454757889 Si
   0.2760421666091908    0.6667623558223420    0.5717956052357031 Si
   0.4387665076539274    0.4966121991855310    0.5718648863744548 Si
   0.4390446617773744    0.6637618869928011    0.6824143370669890 Si
   0.4406176376307089    0.6652607830572798    0.4575353543200214 Si
   0.4400379342654114    0.8314780318500995    0.1225846687025768 Si
   0.2736342852231671    0.8315075680425748    0.2277638868375512 Si
   0.4406059666612480    0.8317235422496135    0.3415978074427023 Si
   0.2732252371270973    0.8311646297495460    0.6806623149341013 Si
   0.2740252530661441    0.8317166874914821    0.4577741975366461 Si
   0.4409431268879723    0.8322269492435965    0.5746509219843708 Si
   0.6027520787225519    1.0012990591326543    0.1225673611857292 Si
   0.6073252366986558    0.9981140490234005    0.3414557511618724 Si
   0.6068747694934399    0.1646262081007351    0.2287599728646199 Si
   0.6067044602762023    0.9979369012330911    0.5746117394170194 Si
   0.6077590864718867    0.1656344579347097    0.6806331681471598 Si
   0.6072354512361766    0.1648387387436484    0.4577692921066102 Si
   0.6134135050861654    0.3253368209763127    0.1226467162794435 Si
   0.6072252292149154    0.3316672140029954    0.3416102198469608 Si
   0.6089205725972918    0.3338625870969025    0.5717856009235056 Si
   0.6071485351535632    0.6648331830292352    0.1226099645025357 Si
   0.6069912040420345    0.4980718757675451    0.2279363279989273 Si
   0.6070966520179776    0.6651528849715886    0.3414540952116763 Si
   0.6059145191514455    0.4968816241667925    0.6824107496907696 Si
   0.6073771691601373    0.4984847366012444    0.4575508681487594 Si
   0.6064319308463514    0.6643044379389702    0.5725106491732515 Si
   0.6075692549898110    0.8318567637879613    0.2273898871325807 Si
   0.6068330744675621    0.8320951227032496    0.6823641865379177 Si
   0.6069799415526512    0.8319132804749170    0.4577926110837804 Si
   0.7573841550557882    0.1818762154165747    0.1239792408308810 Si
   0.9564808747365637    0.9833358679522145    0.1238051488780322 Si
   0.7740940029607053    0.9982569160865983    0.2260547976638923 Si
   0.7739651398277132    0.1648375772729374    0.3412038991925699 Si
   0.9403136286451461    0.9985830196054121    0.3411454193887737 Si
   0.9401677465365458    0.1647538319205861    0.2265415758311781 Si
   0.7751452133380808    0.9998691206710025    0.6823850824627293 Si
   0.7736426879666491    0.9982534409230706    0.4573615574461483 Si
   0.7721802522173187    0.1628025649795868    0.5717398868965174 Si
   0.9422475475143236    1.0001679662371701    0.5718090983925038 Si
   0.9409221260023251    0.1644277337967920    0.6797316580270569 Si
   0.9405500623090501    0.1652113434803469    0.4571995105964552 Si
   0.9396232919190720    0.3333898114844326    0.1224817697113540 Si
   0.7742162379264012    0.3321703735967806    0.2287223915649970 Si
   0.9405908771759682    0.3318037218791746    0.3411680269779936 Si
   0.7733339278953542    0.3310082562540483    0.6806323912434228 Si
   0.7739411597350098    0.3317241946616619    0.4577996578998799 Si
   0.9394516832727575    0.3307023393582364    0.5731477855548582 Si
   0.7736203864958493    0.4983956255162519    0.1226343595893973 Si
   0.9312517624807439    0.6736295710547855    0.1228783966086932 Si
   0.7739263527175574    0.4983580245397551    0.3419600287505145 Si
   0.7732839199145398    0.6644118088541462    0.2290249150944295 Si
   0.9407181549438290    0.4989162773059616    0.2277116826207134 Si
   0.9405744454868111    0.6647982880405729    0.3419466217443937 Si
   0.7743963360218744    0.4987484243642092    0.5746609685980999 Si
   0.7742264822984591    0.6646876585333822    0.6823581286490848 Si
   0.9410659055946016    0.4978126281059516    0.6834130617810524 Si
   0.7740284110795739    0.6648602814434362    0.4579266455497972 Si
   0.9404072938976448    0.4984850972968600    0.4582759370333986 Si
   0.9401428716412575    0.6644998463301802    0.5746634747059045 Si
   0.7851056385627279    0.8189100046858908    0.1231792048626110 Si
   0.7735960888676895    0.8317637020069734    0.3414045931341305 Si
   0.9406314377062344    0.8315845125869934    0.2296217799021850 Si
   0.7745822044764810    0.8324963734541410    0.5724848447231700 Si
   0.9419969604010913    0.8330275825270624    0.6823840527815482 Si
   0.9403759549978085    0.8315464676774312    0.4575966657470658 Si
   0.1096157544365875    0.1643317679536680    0.1225305459565241 Si
   0.1077615292598222    0.9988265276818290    0.2287970609902903 Si
   0.1071217816352766    0.1652683850256663    0.3413635864422015 Si
   0.1065840546076083    0.9988006215670241    0.6797403922615650 Si
   0.1073187114220962    0.9984561117817725    0.4573519245620323 Si
   0.1089853694837061    0.1668801672570849    0.5719480707885136 Si
   0.1070179606431896    0.3316489618799833    0.2279228951991897 Si
   0.1075614449278000    0.3313202163428565    0.6826723583535488 Si
   0.1069353567229041    0.3319902315704311    0.4571948620708423 Si
   0.1096848669535570    0.4957612442393799    0.1226052437547959 Si
   0.1070030950512354    0.4985228616653878    0.3411575207220139 Si
   0.1069654308759342    0.6652105084083393    0.2271922027902239 Si
   0.1081699638650585    0.4994677423664266    0.5731669641406657 Si
   0.1078377454765554    0.6655851832912421    0.6806615963239383 Si
   0.1071073021726033    0.6649884994861927    0.4577493773709802 Si
   0.1005263212619709    0.8389586862779431    0.1226532069851657 Si
   0.1073735155755947    0.8316115300758961    0.3416722277016577 Si
   0.1050231404773183    0.8299892213899508    0.5717911919478750 Si
