Si78 C76                                
    1.000000000000000     
    22.4486148800000009    0.0000000000000000    0.0000000000000000
     0.0000000000000000   19.3804785600000002    0.0000000000000000
     0.0000000000000000    0.0000000000000000   19.2931999999999988
   C    Si
    76    78
Direct
  0.0787671952883381  0.0767431587232671  0.0485225468987957
  0.2104922231517822  0.0795700334409556  0.0634687474522022
  0.0690257162277491  0.2423194513296603  0.0416965907863001
  0.2775522873625462 -0.0002136049769185  0.1760328437121832
  0.0051772771684484  0.0041158845373799  0.1607577021655696
  0.1400289890984071  0.0023867421356559  0.1799011242341834
  0.0636971184105787  0.0807057101932233  0.2851088541873565
  0.2096046628189336  0.0814016012059514  0.2882217365284601
  0.1383497547515261  0.1608290773739671  0.1724415501692733
  0.0058000311508654  0.1618228768095145  0.1565373143956026
  0.0632606493491240  0.2424880285595934  0.2830413085227876
  0.0056836427000510  0.3229218808145131  0.1564771290026820
  0.2772947011781641  0.0083072660410254  0.4106499326924400
  0.0060236124618557  0.0072953487270204  0.4129354271018725
  0.1408370187869830  0.9916892286043361  0.3870631622339993
  0.1117270031547823  0.0785653035587359  0.5058641248013171
  0.1726116516521007  0.0768056697599043  0.5016911609675115
  0.1398358713920347  0.1593548115067915  0.3906087077983799
  0.0111759959159717  0.3215805706731134  0.4104350906711964
  0.0112546368889673  0.1635592172099615  0.4105161118664138
  0.1128909618944892  0.2425972089397164  0.5025525677207785
  0.5499311235738052  0.0043603391502458  0.1612728103319128
  0.5485665331586830  0.0072784051092417  0.4136166046705517
  0.3448542762077663  0.0797221723539878  0.0636420874181479
  0.4765854155032657  0.0771367720967304  0.0490211433810577
  0.4862166531644783  0.2426773425307840  0.0424014118298312
  0.2118624109227066  0.2424240944202396  0.0617977729415769
  0.3433772077339352  0.2426137915321200  0.0620112575750349
  0.3448393973730575  0.4055200126370930  0.0637135225051481
  0.4765425370893762  0.4082153746147045  0.0491475445854881
  0.2104756510546773  0.4053421223477935  0.0633681341827342
  0.0787904213009767  0.4077838156895559  0.0483620943474634
  0.4150670768775359  0.0025433519790805  0.1802194284870915
  0.3452628182490990  0.0814277473717730  0.2884076750294892
  0.4911576063598158  0.0807858376528339  0.2857052121513124
  0.4167423809296613  0.1609982808987165  0.1728747653753213
  0.5492662635948246  0.1621268950104710  0.1573545522376815
  0.4914676242706693  0.2426209751853895  0.2838196727335691
  0.5492534510180136  0.3231997039733095  0.1574292067743654
  0.2775287571830546  0.1612220055289381  0.1739603864424710
  0.2090367018136553  0.2425484557342092  0.2863293348439509
  0.3457373410121946  0.2425785077547519  0.2865644447261836
  0.2775021925413904  0.3238628125899343  0.1739505829173960
  0.4167082584722728  0.3242296107671635  0.1729188705347698
  0.3451620457728269  0.4037482471512907  0.2883939419488705
  0.4910457605190826  0.4044464430096762  0.2857797125556795
  0.4149641307799945  0.4827750445370489  0.1803038812227252
  0.5498640628696919  0.4809625686450208  0.1615122123607539
  0.1383039264363787  0.3240428942340094  0.1723934054462789
  0.0635504371630922  0.4043234995999349  0.2849110407854866
  0.2094952287946408  0.4037182964342238  0.2881230244934352
  0.1399070479814112  0.4825697052928077  0.1796025738558739
  0.2774374943995055  0.4853149266542258  0.1759979604742087
  0.0051549861683097  0.4806949809545630  0.1601855815880432
  0.4137681037121971  0.9916529383031054  0.3874094815721018
  0.3817765788601459  0.0767421909144642  0.5020453284938582
  0.4426466788237013  0.0784808279237973  0.5063350085388468
  0.4147245080138894  0.1593164910170072  0.3910537968157736
  0.5433061209039106  0.1636032000288066  0.4113387899116429
  0.5432619457648141  0.3216805637653157  0.4113794998526877
  0.4413874841520966  0.2425753931084272  0.5030468879424416
  0.2772629608175575  0.1627798888638148  0.4080531006345594
  0.2772028079749548  0.3224098526294946  0.4080264362912325
  0.3802962309118695  0.2425510282059165  0.4993276728846222
  0.4146559653119254  0.3258016375545910  0.3910765488728205
  0.3816475826591861  0.4083176634800328  0.5021307730685661
  0.4425229969392274  0.4066436810583215  0.5064134795250675
  0.4136229048152741  0.4934301736735189  0.3875218443375796
  0.5484488196035213  0.4779143629690129  0.4137858901299520
  0.1739897562484060  0.2426048026275573  0.4989913591344784
  0.1407387509376000  0.4934603799979683  0.3868876462563050
  0.1397672674461203  0.3257906861009587  0.3905455026856762
  0.1116023369494451  0.4066539657987979  0.5057296946608202
  0.1724921091752359  0.4083663684296744  0.5016384836907480
  0.2771652185439289  0.4767995118312996  0.4106371759342059
  0.0058912979657448  0.4778122211809444  0.4127570286129447
  0.0934819562729173  0.0444444702355930  0.9560338992650044
  0.2209139055636029  0.0513571402315860 -0.0292230695758942
  0.0928065824709967  0.1604803050631613  0.9947731535644412
  0.3452707258037845  0.0127135412866125  0.2214112228574059
  0.0677492083891106  0.0139612901895971  0.2159165400932588
  0.2097439504494754  0.0126673891261872  0.2212492116920945
  0.1411661729332744  0.0744882928632256  0.1161041122815142
  0.0186732672101999  0.0805924988759974  0.1139410634722080
  0.0642218919389620  0.1620704235165375  0.2256262858978513
  0.0133950019547874  0.2423642822058108  0.1131324358771356
  0.3506003236309080  0.0081832946532750  0.4426302163253634
  0.0786951231292549  0.0088007586494059  0.4463069034286105
  0.2028827831055776  0.1602672552794275  0.4558549976720029
  0.2039201637726858  0.0082136868997963  0.4424116635803658
  0.1382015953603671  0.0757288908817332  0.3383354419435839
  0.2773705053153839  0.0815284973415037  0.3473862472835663
  0.0156168103614088  0.0831792520467676  0.3637684755078238
  0.0802007751368926  0.3244034781848235  0.4629956257738436
  0.0802759089067009  0.1607525955257278  0.4630741745170714
  0.0151712872971655  0.2425486399161436  0.3636826523272831
  0.0154879570599619  0.4019314960415940  0.3636205785442956
  0.4873003383691193  0.0141452698928794  0.2163767564914236
  0.5365280142360384  0.0809529770754888  0.1146028975356653
  0.4758275037953940  0.0087587808517654  0.4467815561583152
  0.5390693450897314  0.0832348581297371  0.3645343948856026
  0.3345143516716881  0.0516063749000785 -0.0290927891588062
  0.4619861526115705  0.0448951339381536  0.9564833237824407
  0.4626100012112240  0.1608835095922347  0.9953012147753427
  0.3604025413902375  0.1629095795576419  0.0121254761636940
  0.1949869837460164  0.1626973675802034  0.0118761797442370
  0.3603567392873819  0.3223616548554132  0.0121594226081357
  0.4625688696132953  0.3245007840409651  0.9953680740238179
  0.4620065240696780  0.4405446345644972  0.9566210901229401
  0.0928295819265561  0.3240818213635973  0.9946357627503433
  0.1949856124353261  0.3221267567161242  0.0118736086594883
  0.2210022194146681  0.4334321688796481 -0.0293331590993336
  0.3345972877719345  0.4337152675264496 -0.0290209275574928
  0.0935136968594738  0.4401261933855509  0.9559121908446933
  0.4140674841664945  0.0746947869174097  0.1164674250757330
  0.4907171497872583  0.1622454569666255  0.2263109169217546
  0.5417286453887357  0.2426792973123009  0.1139817173525058
  0.2776117524611913  0.0772369960714967  0.1189447202518110
  0.2085676348990507  0.1622759609780952  0.2292397156093630
  0.3463821313005739  0.1623274886860840  0.2294472602699555
  0.2775591722705485  0.2425378243397000  0.1203689573613752
  0.4166514509989471  0.2426375212719623  0.1166182707995899
  0.3463374826844348  0.3228306108948683  0.2294564701986999
  0.4906769246102801  0.3230167563165678  0.2263619579236191
  0.4140213721238401  0.4105841742837311  0.1165782802476702
  0.5364904213628927  0.4044018325589675  0.1147472360125895
  0.4871681796186739  0.4711581305497446  0.2165159173578056
  0.1384723652301884  0.2424154452916225  0.1161473056282620
  0.0641488064322755  0.3228466081228480  0.2255450981628030
  0.2085288020811259  0.3227816049010278  0.2292032100528825
  0.1411252219195497  0.4103132964883673  0.1159836676662969
  0.2775642796914401  0.4078590177732103  0.1189296586373602
  0.2095846556841197  0.4724088632690596  0.2210973100704995
  0.3451487967801087  0.4724813408525240  0.2214226452533683
  0.0186180949073106  0.4040426110683288  0.1136894857164802
  0.0675978003481410  0.4709369267623250  0.2155500787786076
  0.4165427655868150  0.0757171520858038  0.3387307060415212
  0.4741520548136376  0.1607297255922701  0.4636772694362516
  0.5394048725000007  0.2426457661941728  0.3645877182356644
  0.3515450427198553  0.1602115630154308  0.4561110497494547
  0.2773137446824704  0.2425777792800833  0.3478510582682634
  0.3514730848759045  0.3248858254441102  0.4561234291740191
  0.4166019652120416  0.2425769308586624  0.3390805633324777
  0.4740903845045978  0.3244492830102015  0.4636896981052715
  0.4164192499542565  0.4094289763750106  0.3387854700997309
  0.5389684611163301  0.4020285529878768  0.3645813948867785
  0.4756799953738379  0.4763875670269984  0.4469022043466233
  0.1380183605117384  0.2425552893943914  0.3385637310654750
  0.2028095459351119  0.3249231906937443  0.4558028114126845
  0.1380749607280644  0.4093978406651650  0.3382046498317871
  0.2772603635936956  0.4036333270827290  0.3473310513705068
  0.3504460903216730  0.4768821696633160  0.4427173564371034
  0.2037758447671822  0.4769185836354978  0.4423184144692585
  0.0785560070972106  0.4763620607595884  0.4460885936934176
 
  0.00000000E+00  0.00000000E+00  0.00000000E+00
  0.00000000E+00  0.00000000E+00  0.00000000E+00
  0.00000000E+00  0.00000000E+00  0.00000000E+00
  0.00000000E+00  0.00000000E+00  0.00000000E+00
  0.00000000E+00  0.00000000E+00  0.00000000E+00
  0.00000000E+00  0.00000000E+00  0.00000000E+00
  0.00000000E+00  0.00000000E+00  0.00000000E+00
  0.00000000E+00  0.00000000E+00  0.00000000E+00
  0.00000000E+00  0.00000000E+00  0.00000000E+00
  0.00000000E+00  0.00000000E+00  0.00000000E+00
  0.00000000E+00  0.00000000E+00  0.00000000E+00
  0.00000000E+00  0.00000000E+00  0.00000000E+00
  0.00000000E+00  0.00000000E+00  0.00000000E+00
  0.00000000E+00  0.00000000E+00  0.00000000E+00
  0.00000000E+00  0.00000000E+00  0.00000000E+00
  0.00000000E+00  0.00000000E+00  0.00000000E+00
  0.00000000E+00  0.00000000E+00  0.00000000E+00
  0.00000000E+00  0.00000000E+00  0.00000000E+00
  0.00000000E+00  0.00000000E+00  0.00000000E+00
  0.00000000E+00  0.00000000E+00  0.00000000E+00
  0.00000000E+00  0.00000000E+00  0.00000000E+00
  0.00000000E+00  0.00000000E+00  0.00000000E+00
  0.00000000E+00  0.00000000E+00  0.00000000E+00
  0.00000000E+00  0.00000000E+00  0.00000000E+00
  0.00000000E+00  0.00000000E+00  0.00000000E+00
  0.00000000E+00  0.00000000E+00  0.00000000E+00
  0.00000000E+00  0.00000000E+00  0.00000000E+00
  0.00000000E+00  0.00000000E+00  0.00000000E+00
  0.00000000E+00  0.00000000E+00  0.00000000E+00
  0.00000000E+00  0.00000000E+00  0.00000000E+00
  0.00000000E+00  0.00000000E+00  0.00000000E+00
  0.00000000E+00  0.00000000E+00  0.00000000E+00
  0.00000000E+00  0.00000000E+00  0.00000000E+00
  0.00000000E+00  0.00000000E+00  0.00000000E+00
  0.00000000E+00  0.00000000E+00  0.00000000E+00
  0.00000000E+00  0.00000000E+00  0.00000000E+00
  0.00000000E+00  0.00000000E+00  0.00000000E+00
  0.00000000E+00  0.00000000E+00  0.00000000E+00
  0.00000000E+00  0.00000000E+00  0.00000000E+00
  0.00000000E+00  0.00000000E+00  0.00000000E+00
  0.00000000E+00  0.00000000E+00  0.00000000E+00
  0.00000000E+00  0.00000000E+00  0.00000000E+00
  0.00000000E+00  0.00000000E+00  0.00000000E+00
  0.00000000E+00  0.00000000E+00  0.00000000E+00
  0.00000000E+00  0.00000000E+00  0.00000000E+00
  0.00000000E+00  0.00000000E+00  0.00000000E+00
  0.00000000E+00  0.00000000E+00  0.00000000E+00
  0.00000000E+00  0.00000000E+00  0.00000000E+00
  0.00000000E+00  0.00000000E+00  0.00000000E+00
  0.00000000E+00  0.00000000E+00  0.00000000E+00
  0.00000000E+00  0.00000000E+00  0.00000000E+00
  0.00000000E+00  0.00000000E+00  0.00000000E+00
  0.00000000E+00  0.00000000E+00  0.00000000E+00
  0.00000000E+00  0.00000000E+00  0.00000000E+00
  0.00000000E+00  0.00000000E+00  0.00000000E+00
  0.00000000E+00  0.00000000E+00  0.00000000E+00
  0.00000000E+00  0.00000000E+00  0.00000000E+00
  0.00000000E+00  0.00000000E+00  0.00000000E+00
  0.00000000E+00  0.00000000E+00  0.00000000E+00
  0.00000000E+00  0.00000000E+00  0.00000000E+00
  0.00000000E+00  0.00000000E+00  0.00000000E+00
  0.00000000E+00  0.00000000E+00  0.00000000E+00
  0.00000000E+00  0.00000000E+00  0.00000000E+00
  0.00000000E+00  0.00000000E+00  0.00000000E+00
  0.00000000E+00  0.00000000E+00  0.00000000E+00
  0.00000000E+00  0.00000000E+00  0.00000000E+00
  0.00000000E+00  0.00000000E+00  0.00000000E+00
  0.00000000E+00  0.00000000E+00  0.00000000E+00
  0.00000000E+00  0.00000000E+00  0.00000000E+00
  0.00000000E+00  0.00000000E+00  0.00000000E+00
  0.00000000E+00  0.00000000E+00  0.00000000E+00
  0.00000000E+00  0.00000000E+00  0.00000000E+00
  0.00000000E+00  0.00000000E+00  0.00000000E+00
  0.00000000E+00  0.00000000E+00  0.00000000E+00
  0.00000000E+00  0.00000000E+00  0.00000000E+00
  0.00000000E+00  0.00000000E+00  0.00000000E+00
  0.00000000E+00  0.00000000E+00  0.00000000E+00
  0.00000000E+00  0.00000000E+00  0.00000000E+00
  0.00000000E+00  0.00000000E+00  0.00000000E+00
  0.00000000E+00  0.00000000E+00  0.00000000E+00
  0.00000000E+00  0.00000000E+00  0.00000000E+00
  0.00000000E+00  0.00000000E+00  0.00000000E+00
  0.00000000E+00  0.00000000E+00  0.00000000E+00
  0.00000000E+00  0.00000000E+00  0.00000000E+00
  0.00000000E+00  0.00000000E+00  0.00000000E+00
  0.00000000E+00  0.00000000E+00  0.00000000E+00
  0.00000000E+00  0.00000000E+00  0.00000000E+00
  0.00000000E+00  0.00000000E+00  0.00000000E+00
  0.00000000E+00  0.00000000E+00  0.00000000E+00
  0.00000000E+00  0.00000000E+00  0.00000000E+00
  0.00000000E+00  0.00000000E+00  0.00000000E+00
  0.00000000E+00  0.00000000E+00  0.00000000E+00
  0.00000000E+00  0.00000000E+00  0.00000000E+00
  0.00000000E+00  0.00000000E+00  0.00000000E+00
  0.00000000E+00  0.00000000E+00  0.00000000E+00
  0.00000000E+00  0.00000000E+00  0.00000000E+00
  0.00000000E+00  0.00000000E+00  0.00000000E+00
  0.00000000E+00  0.00000000E+00  0.00000000E+00
  0.00000000E+00  0.00000000E+00  0.00000000E+00
  0.00000000E+00  0.00000000E+00  0.00000000E+00
  0.00000000E+00  0.00000000E+00  0.00000000E+00
  0.00000000E+00  0.00000000E+00  0.00000000E+00
  0.00000000E+00  0.00000000E+00  0.00000000E+00
  0.00000000E+00  0.00000000E+00  0.00000000E+00
  0.00000000E+00  0.00000000E+00  0.00000000E+00
  0.00000000E+00  0.00000000E+00  0.00000000E+00
  0.00000000E+00  0.00000000E+00  0.00000000E+00
  0.00000000E+00  0.00000000E+00  0.00000000E+00
  0.00000000E+00  0.00000000E+00  0.00000000E+00
  0.00000000E+00  0.00000000E+00  0.00000000E+00
  0.00000000E+00  0.00000000E+00  0.00000000E+00
  0.00000000E+00  0.00000000E+00  0.00000000E+00
  0.00000000E+00  0.00000000E+00  0.00000000E+00
  0.00000000E+00  0.00000000E+00  0.00000000E+00
  0.00000000E+00  0.00000000E+00  0.00000000E+00
  0.00000000E+00  0.00000000E+00  0.00000000E+00
  0.00000000E+00  0.00000000E+00  0.00000000E+00
  0.00000000E+00  0.00000000E+00  0.00000000E+00
  0.00000000E+00  0.00000000E+00  0.00000000E+00
  0.00000000E+00  0.00000000E+00  0.00000000E+00
  0.00000000E+00  0.00000000E+00  0.00000000E+00
  0.00000000E+00  0.00000000E+00  0.00000000E+00
  0.00000000E+00  0.00000000E+00  0.00000000E+00
  0.00000000E+00  0.00000000E+00  0.00000000E+00
  0.00000000E+00  0.00000000E+00  0.00000000E+00
  0.00000000E+00  0.00000000E+00  0.00000000E+00
  0.00000000E+00  0.00000000E+00  0.00000000E+00
  0.00000000E+00  0.00000000E+00  0.00000000E+00
  0.00000000E+00  0.00000000E+00  0.00000000E+00
  0.00000000E+00  0.00000000E+00  0.00000000E+00
  0.00000000E+00  0.00000000E+00  0.00000000E+00
  0.00000000E+00  0.00000000E+00  0.00000000E+00
  0.00000000E+00  0.00000000E+00  0.00000000E+00
  0.00000000E+00  0.00000000E+00  0.00000000E+00
  0.00000000E+00  0.00000000E+00  0.00000000E+00
  0.00000000E+00  0.00000000E+00  0.00000000E+00
  0.00000000E+00  0.00000000E+00  0.00000000E+00
  0.00000000E+00  0.00000000E+00  0.00000000E+00
  0.00000000E+00  0.00000000E+00  0.00000000E+00
  0.00000000E+00  0.00000000E+00  0.00000000E+00
  0.00000000E+00  0.00000000E+00  0.00000000E+00
  0.00000000E+00  0.00000000E+00  0.00000000E+00
  0.00000000E+00  0.00000000E+00  0.00000000E+00
  0.00000000E+00  0.00000000E+00  0.00000000E+00
  0.00000000E+00  0.00000000E+00  0.00000000E+00
  0.00000000E+00  0.00000000E+00  0.00000000E+00
  0.00000000E+00  0.00000000E+00  0.00000000E+00
  0.00000000E+00  0.00000000E+00  0.00000000E+00
  0.00000000E+00  0.00000000E+00  0.00000000E+00
  0.00000000E+00  0.00000000E+00  0.00000000E+00
  0.00000000E+00  0.00000000E+00  0.00000000E+00
  0.00000000E+00  0.00000000E+00  0.00000000E+00
  0.00000000E+00  0.00000000E+00  0.00000000E+00
  0.00000000E+00  0.00000000E+00  0.00000000E+00
