ALGO = Fast
PREC = Accurate

EDIFF = 1E-6
ENCUT = 520
NSW = 300
NELM = 100

ISMEAR = -5

IBRION = 2
ISIF = 2

LREAL = Auto
LWAVE = False
LCHARG = False
