Si78 C76                                
    1.000000000000000     
    22.4486148800000009    0.0000000000000000    0.0000000000000000
     0.0000000000000000   19.3804785600000002    0.0000000000000000
     0.0000000000000000    0.0000000000000000   19.2931999999999988
   C    Si
    76    78
Direct
  0.0854511770378936  0.0799232158677947  0.0456191974853977
  0.2140665895252111  0.0821254348211395  0.0676808682664570
  0.0822143225425061  0.2413199370567528  0.0341176353224188
  0.2776942512970241 -0.0031408079073649  0.1769984906394721
  0.0057500829105023  0.0064288863210811  0.1553298692800001
  0.1399943130128158  0.0023418034328834  0.1759654872844992
  0.0628641140878324  0.0805199919533730  0.2826988269468940
  0.2091717009219571  0.0800163456407910  0.2878908348380579
  0.1391725549324962  0.1616695241888790  0.1742551169459865
  0.0101636403040591  0.1634217938464398  0.1490874271571962
  0.0619328451967344  0.2424047819373230  0.2815587465273134
  0.0108421003372876  0.3216878489265357  0.1473997585715582
  0.2774036401374268  0.0065569127955034  0.4099842605168528
  0.0051624060578061  0.0066229788716710  0.4111869443723362
  0.1406777142082650 -0.0092130162966067  0.3850221919676718
  0.1108501642087228  0.0773621177733354  0.5037929281519095
  0.1717261968706063  0.0757383357796048  0.4998000209128501
  0.1390928459245642  0.1586027807207293  0.3894777288881476
  0.0101083174531872  0.3215433703470192  0.4085499872182574
  0.0102973382288491  0.1629818315616191  0.4083008215870430
  0.1119213112854167  0.2422468301908696  0.5005759772382026
  0.5490262026544404  0.0067536264954924  0.1546739345646641
  0.5498548131557602  0.0073064742729114  0.4114836535089603
  0.3415728522192116  0.0830581892525198  0.0679419960147152
  0.4697711399631390  0.0794432773108247  0.0445418215987402
  0.4722874353728240  0.2431540494346368  0.0337567345439353
  0.2138735633278664  0.2418770722092530  0.0693668214896057
  0.3411352720373761  0.2435142633015717  0.0700963613926040
  0.3405384533025707  0.4038742046221736  0.0676960304060960
  0.4689799777888529  0.4046862179550286  0.0453951351119128
  0.2133559803142242  0.4020981706192042  0.0682143865646487
  0.0855786420445203  0.4064785723000293  0.0429754885866701
  0.4153719711514053  0.0032026904886711  0.1759482464630453
  0.3457904218762812  0.0802845797726646  0.2878158753442769
  0.4919780840965213  0.0813009841831341  0.2826681369735435
  0.4158146244290070  0.1627999676914109  0.1741977343244729
  0.5443745745824516  0.1638442555441935  0.1482809744304112
  0.4926001460178235  0.2428483917419638  0.2818015980283097
  0.5440189562729677  0.3216610570419084  0.1490687848561512
  0.2774207554978364  0.1617487479635347  0.1807030518623841
  0.2085139461861069  0.2424538251644418  0.2888190959006972
  0.3461976980437189  0.2427383960061781  0.2888872635103783
  0.2772761267859855  0.3237546289979188  0.1808233654720762
  0.4153641591323203  0.3238193447453149  0.1743226876425730
  0.3455905736402919  0.4051031295240052  0.2883873773801144
  0.4918736915652526  0.4044799952254207  0.2831823969212522
  0.4149461455781329  0.4829433616350344  0.1766645511867549
  0.5488664251178740  0.4784272914514792  0.1552222543979419
  0.1390285903320782  0.3223831174753896  0.1742581505975006
  0.0624326875697269  0.4040288563192799  0.2826603374027506
  0.2088024626863656  0.4048230256605127  0.2882768827523718
  0.1394090807928720  0.4815386953358438  0.1763570726070709
  0.2770898739183200  0.4883118502765624  0.1780028844520866
  0.0060482355532793  0.4787391214067253  0.1540866191079519
  0.4142494966998950 -0.0089772083505489  0.3846591403205500
  0.3829963167159929  0.0757601333091466  0.4997020394844299
  0.4438573776635069  0.0774573013212766  0.5037759058856427
  0.4156695229074351  0.1588803511367906  0.3895779026657953
  0.5443255166568478  0.1634310738716422  0.4086516539980927
  0.5441967550230503  0.3219703762514364  0.4089568370844664
  0.4425874204896097  0.2423672386427730  0.5008727894558277
  0.2773482039397369  0.1617407346053024  0.4078441240584745
  0.2772386865255621  0.3231173022087103  0.4080722697053575
  0.3814420183534478  0.2423565933954805  0.4974241661585689
  0.4156029993385941  0.3263125557166493  0.3899161920244250
  0.3828007111604104  0.4089153922736619  0.5003345546951161
  0.4436541366797944  0.4072432202099895  0.5045606988256928
  0.4139877865199881  0.4941290149650086  0.3857594574350764
  0.5493091446445758  0.4782134067442511  0.4119001068555334
  0.1730605462600223  0.2422682347718963  0.4972878484551329
  0.1403203438991288  0.4939238838608187  0.3850632647667185
  0.1388999772836114  0.3259824998717096  0.3896625098197574
  0.1106405689494723  0.4072306057760596  0.5038826151226377
  0.1714971565626420  0.4089110271545727  0.4998939070133573
  0.2771796586123780  0.4782678110971844  0.4105688084817860
  0.0046945493030722  0.4777107197039471  0.4117009711330067
  0.1037649209620846  0.0264463872243908 -0.0342669992628840
  0.2193225012957035  0.0046080019404809  0.0117075362475673
  0.1102554801366208  0.1569791872457676 -0.0124457244267900
  0.3467381745122142  0.0109635599625609  0.2210231572151613
  0.0668179066523049  0.0150419367417041  0.2123002963822270
  0.2085306151235777  0.0108392594719586  0.2209782647023083
  0.1433131109265777  0.0789431810952241  0.1173614076960128
  0.0229024846972070  0.0817015884177545  0.1078501189814120
  0.0637524382763203  0.1626617465680997  0.2235301614721472
  0.0217639370908956  0.2420477793835983  0.1031376553399929
  0.3512744301164838  0.0073501297614140  0.4405313977760014
  0.0778803111303130  0.0074773979952973  0.4437979976059708
  0.2021981949934559  0.1594850792902312  0.4548279795957463
  0.2035975954742397  0.0072214486512891  0.4407937454283327
  0.1372246389090145  0.0749763154379014  0.3372015847740222
  0.2774609149351497  0.0800776390042435  0.3471038314654867
  0.0145724166130352  0.0824100946070921  0.3619935448130585
  0.0790991069478745  0.3245373299450092  0.4614823626870057
  0.0792385701718955  0.1599479248683522  0.4613451729897740
  0.0140320194442767  0.2423331848078342  0.3622986671203777
  0.0142709472589355  0.4020565806138830  0.3621638778257226
  0.4884713260276273  0.0158247451266005  0.2123655549298110
  0.5323080143749781  0.0820870931969370  0.1071150003572049
  0.4769940613328136  0.0077840132464608  0.4437163547765389
  0.5401727626612202  0.0829487231474046  0.3620089095383898
  0.3369268527652242  0.0059639897027568  0.0113282721407510
  0.4477173305369053  0.0241648429333911 -0.0335499219608213
  0.4428292928652329  0.1584449170901234 -0.0083280074082240
  0.3358452994887054  0.1649696711404339  0.0132094822712763
  0.2184040733798332  0.1634884957265128  0.0124240302413881
  0.3378725552327912  0.3218915565899561  0.0129845125482591
  0.4454299173809869  0.3276046600617386 -0.0137370186358001
  0.4530902910792596  0.4557882526010548 -0.0369228310802175
  0.1138034911417033  0.3256982957708283 -0.0028339895484289
  0.2211146759382438  0.3210371072822050  0.0135596283925847
  0.2183766770587251  0.4802838356652600  0.0125137233574298
  0.3344220960540760  0.4771716752071483  0.0063169960415939
  0.1106390828550313  0.4686506444924228 -0.0299913538659299
  0.4120933753061128  0.0799331148206265  0.1176597692278676
  0.4910611956507461  0.1633631710086821  0.2232837593600348
  0.5325266591469602  0.2429194006373303  0.1028688543353933
  0.2776685614736885  0.0805472509485347  0.1265699937121885
  0.2079792819055701  0.1623329369892435  0.2327341839829243
  0.3470248090314801  0.1627419842990160  0.2326061136313290
  0.2774839651623299  0.2428117660115057  0.1287801750920692
  0.4128514538625345  0.2435197377845512  0.1174419420081607
  0.3468047337244683  0.3229473598366788  0.2328133459116680
  0.4906632471416106  0.3225399062258881  0.2237039301361389
  0.4114549104821194  0.4068259474349618  0.1172472447559989
  0.5313498116772651  0.4032870642980366  0.1075515996520371
  0.4880358089864238  0.4698851422976183  0.2127620904100040
  0.1425796303804024  0.2418027124549916  0.1176433854105259
  0.0636055987422947  0.3219302708535323  0.2230935969576229
  0.2078477125271030  0.3226191322802832  0.2327912732724597
  0.1430923149503849  0.4053264856334626  0.1179507729671298
  0.2772173937611220  0.4052946780888793  0.1269887374575037
  0.2081426877901456  0.4741737296857215  0.2216065615114193
  0.3463696380068169  0.4743537965777977  0.2215698057585371
  0.0227430196649725  0.4036826496002299  0.1062636150554451
  0.0661220055279390  0.4692147252731065  0.2121594057685018
  0.4176780885573699  0.0754316006594624  0.3370960686208212
  0.4753838234955239  0.1601841228088801  0.4615955523827404
  0.5405454590825397  0.2427633810347470  0.3625550702057365
  0.3524672825558723  0.1595713125419712  0.4548491549654377
  0.2773477705633853  0.2424985041312580  0.3492425695676287
  0.3523515800294186  0.3252386324534505  0.4551385500393307
  0.4180121475473025  0.2426624828331430  0.3388130426351590
  0.4752765389799675  0.3247512046943744  0.4619812691019907
  0.4175007092039198  0.4099672221948324  0.3376632639540745
  0.5399740143768890  0.4024755282889133  0.3624747259272520
  0.4766087164718097  0.4771768287666826  0.4447045477830814
  0.1366264056218605  0.2423750423023340  0.3386568323845423
  0.2020694894827317  0.3251551562274727  0.4549511527473220
  0.1368370216719125  0.4095853164234545  0.3373665114059719
  0.2772258692347953  0.4048832475264051  0.3474770946508810
  0.3509655685938322  0.4775911428290731  0.4413921991952390
  0.2032751665371360  0.4774936131477654  0.4409300155990196
  0.0775676598010022  0.4771049036663716  0.4439266498485194
 
  0.00000000E+00  0.00000000E+00  0.00000000E+00
  0.00000000E+00  0.00000000E+00  0.00000000E+00
  0.00000000E+00  0.00000000E+00  0.00000000E+00
  0.00000000E+00  0.00000000E+00  0.00000000E+00
  0.00000000E+00  0.00000000E+00  0.00000000E+00
  0.00000000E+00  0.00000000E+00  0.00000000E+00
  0.00000000E+00  0.00000000E+00  0.00000000E+00
  0.00000000E+00  0.00000000E+00  0.00000000E+00
  0.00000000E+00  0.00000000E+00  0.00000000E+00
  0.00000000E+00  0.00000000E+00  0.00000000E+00
  0.00000000E+00  0.00000000E+00  0.00000000E+00
  0.00000000E+00  0.00000000E+00  0.00000000E+00
  0.00000000E+00  0.00000000E+00  0.00000000E+00
  0.00000000E+00  0.00000000E+00  0.00000000E+00
  0.00000000E+00  0.00000000E+00  0.00000000E+00
  0.00000000E+00  0.00000000E+00  0.00000000E+00
  0.00000000E+00  0.00000000E+00  0.00000000E+00
  0.00000000E+00  0.00000000E+00  0.00000000E+00
  0.00000000E+00  0.00000000E+00  0.00000000E+00
  0.00000000E+00  0.00000000E+00  0.00000000E+00
  0.00000000E+00  0.00000000E+00  0.00000000E+00
  0.00000000E+00  0.00000000E+00  0.00000000E+00
  0.00000000E+00  0.00000000E+00  0.00000000E+00
  0.00000000E+00  0.00000000E+00  0.00000000E+00
  0.00000000E+00  0.00000000E+00  0.00000000E+00
  0.00000000E+00  0.00000000E+00  0.00000000E+00
  0.00000000E+00  0.00000000E+00  0.00000000E+00
  0.00000000E+00  0.00000000E+00  0.00000000E+00
  0.00000000E+00  0.00000000E+00  0.00000000E+00
  0.00000000E+00  0.00000000E+00  0.00000000E+00
  0.00000000E+00  0.00000000E+00  0.00000000E+00
  0.00000000E+00  0.00000000E+00  0.00000000E+00
  0.00000000E+00  0.00000000E+00  0.00000000E+00
  0.00000000E+00  0.00000000E+00  0.00000000E+00
  0.00000000E+00  0.00000000E+00  0.00000000E+00
  0.00000000E+00  0.00000000E+00  0.00000000E+00
  0.00000000E+00  0.00000000E+00  0.00000000E+00
  0.00000000E+00  0.00000000E+00  0.00000000E+00
  0.00000000E+00  0.00000000E+00  0.00000000E+00
  0.00000000E+00  0.00000000E+00  0.00000000E+00
  0.00000000E+00  0.00000000E+00  0.00000000E+00
  0.00000000E+00  0.00000000E+00  0.00000000E+00
  0.00000000E+00  0.00000000E+00  0.00000000E+00
  0.00000000E+00  0.00000000E+00  0.00000000E+00
  0.00000000E+00  0.00000000E+00  0.00000000E+00
  0.00000000E+00  0.00000000E+00  0.00000000E+00
  0.00000000E+00  0.00000000E+00  0.00000000E+00
  0.00000000E+00  0.00000000E+00  0.00000000E+00
  0.00000000E+00  0.00000000E+00  0.00000000E+00
  0.00000000E+00  0.00000000E+00  0.00000000E+00
  0.00000000E+00  0.00000000E+00  0.00000000E+00
  0.00000000E+00  0.00000000E+00  0.00000000E+00
  0.00000000E+00  0.00000000E+00  0.00000000E+00
  0.00000000E+00  0.00000000E+00  0.00000000E+00
  0.00000000E+00  0.00000000E+00  0.00000000E+00
  0.00000000E+00  0.00000000E+00  0.00000000E+00
  0.00000000E+00  0.00000000E+00  0.00000000E+00
  0.00000000E+00  0.00000000E+00  0.00000000E+00
  0.00000000E+00  0.00000000E+00  0.00000000E+00
  0.00000000E+00  0.00000000E+00  0.00000000E+00
  0.00000000E+00  0.00000000E+00  0.00000000E+00
  0.00000000E+00  0.00000000E+00  0.00000000E+00
  0.00000000E+00  0.00000000E+00  0.00000000E+00
  0.00000000E+00  0.00000000E+00  0.00000000E+00
  0.00000000E+00  0.00000000E+00  0.00000000E+00
  0.00000000E+00  0.00000000E+00  0.00000000E+00
  0.00000000E+00  0.00000000E+00  0.00000000E+00
  0.00000000E+00  0.00000000E+00  0.00000000E+00
  0.00000000E+00  0.00000000E+00  0.00000000E+00
  0.00000000E+00  0.00000000E+00  0.00000000E+00
  0.00000000E+00  0.00000000E+00  0.00000000E+00
  0.00000000E+00  0.00000000E+00  0.00000000E+00
  0.00000000E+00  0.00000000E+00  0.00000000E+00
  0.00000000E+00  0.00000000E+00  0.00000000E+00
  0.00000000E+00  0.00000000E+00  0.00000000E+00
  0.00000000E+00  0.00000000E+00  0.00000000E+00
  0.00000000E+00  0.00000000E+00  0.00000000E+00
  0.00000000E+00  0.00000000E+00  0.00000000E+00
  0.00000000E+00  0.00000000E+00  0.00000000E+00
  0.00000000E+00  0.00000000E+00  0.00000000E+00
  0.00000000E+00  0.00000000E+00  0.00000000E+00
  0.00000000E+00  0.00000000E+00  0.00000000E+00
  0.00000000E+00  0.00000000E+00  0.00000000E+00
  0.00000000E+00  0.00000000E+00  0.00000000E+00
  0.00000000E+00  0.00000000E+00  0.00000000E+00
  0.00000000E+00  0.00000000E+00  0.00000000E+00
  0.00000000E+00  0.00000000E+00  0.00000000E+00
  0.00000000E+00  0.00000000E+00  0.00000000E+00
  0.00000000E+00  0.00000000E+00  0.00000000E+00
  0.00000000E+00  0.00000000E+00  0.00000000E+00
  0.00000000E+00  0.00000000E+00  0.00000000E+00
  0.00000000E+00  0.00000000E+00  0.00000000E+00
  0.00000000E+00  0.00000000E+00  0.00000000E+00
  0.00000000E+00  0.00000000E+00  0.00000000E+00
  0.00000000E+00  0.00000000E+00  0.00000000E+00
  0.00000000E+00  0.00000000E+00  0.00000000E+00
  0.00000000E+00  0.00000000E+00  0.00000000E+00
  0.00000000E+00  0.00000000E+00  0.00000000E+00
  0.00000000E+00  0.00000000E+00  0.00000000E+00
  0.00000000E+00  0.00000000E+00  0.00000000E+00
  0.00000000E+00  0.00000000E+00  0.00000000E+00
  0.00000000E+00  0.00000000E+00  0.00000000E+00
  0.00000000E+00  0.00000000E+00  0.00000000E+00
  0.00000000E+00  0.00000000E+00  0.00000000E+00
  0.00000000E+00  0.00000000E+00  0.00000000E+00
  0.00000000E+00  0.00000000E+00  0.00000000E+00
  0.00000000E+00  0.00000000E+00  0.00000000E+00
  0.00000000E+00  0.00000000E+00  0.00000000E+00
  0.00000000E+00  0.00000000E+00  0.00000000E+00
  0.00000000E+00  0.00000000E+00  0.00000000E+00
  0.00000000E+00  0.00000000E+00  0.00000000E+00
  0.00000000E+00  0.00000000E+00  0.00000000E+00
  0.00000000E+00  0.00000000E+00  0.00000000E+00
  0.00000000E+00  0.00000000E+00  0.00000000E+00
  0.00000000E+00  0.00000000E+00  0.00000000E+00
  0.00000000E+00  0.00000000E+00  0.00000000E+00
  0.00000000E+00  0.00000000E+00  0.00000000E+00
  0.00000000E+00  0.00000000E+00  0.00000000E+00
  0.00000000E+00  0.00000000E+00  0.00000000E+00
  0.00000000E+00  0.00000000E+00  0.00000000E+00
  0.00000000E+00  0.00000000E+00  0.00000000E+00
  0.00000000E+00  0.00000000E+00  0.00000000E+00
  0.00000000E+00  0.00000000E+00  0.00000000E+00
  0.00000000E+00  0.00000000E+00  0.00000000E+00
  0.00000000E+00  0.00000000E+00  0.00000000E+00
  0.00000000E+00  0.00000000E+00  0.00000000E+00
  0.00000000E+00  0.00000000E+00  0.00000000E+00
  0.00000000E+00  0.00000000E+00  0.00000000E+00
  0.00000000E+00  0.00000000E+00  0.00000000E+00
  0.00000000E+00  0.00000000E+00  0.00000000E+00
  0.00000000E+00  0.00000000E+00  0.00000000E+00
  0.00000000E+00  0.00000000E+00  0.00000000E+00
  0.00000000E+00  0.00000000E+00  0.00000000E+00
  0.00000000E+00  0.00000000E+00  0.00000000E+00
  0.00000000E+00  0.00000000E+00  0.00000000E+00
  0.00000000E+00  0.00000000E+00  0.00000000E+00
  0.00000000E+00  0.00000000E+00  0.00000000E+00
  0.00000000E+00  0.00000000E+00  0.00000000E+00
  0.00000000E+00  0.00000000E+00  0.00000000E+00
  0.00000000E+00  0.00000000E+00  0.00000000E+00
  0.00000000E+00  0.00000000E+00  0.00000000E+00
  0.00000000E+00  0.00000000E+00  0.00000000E+00
  0.00000000E+00  0.00000000E+00  0.00000000E+00
  0.00000000E+00  0.00000000E+00  0.00000000E+00
  0.00000000E+00  0.00000000E+00  0.00000000E+00
  0.00000000E+00  0.00000000E+00  0.00000000E+00
  0.00000000E+00  0.00000000E+00  0.00000000E+00
  0.00000000E+00  0.00000000E+00  0.00000000E+00
  0.00000000E+00  0.00000000E+00  0.00000000E+00
  0.00000000E+00  0.00000000E+00  0.00000000E+00
  0.00000000E+00  0.00000000E+00  0.00000000E+00
  0.00000000E+00  0.00000000E+00  0.00000000E+00
  0.00000000E+00  0.00000000E+00  0.00000000E+00
  0.00000000E+00  0.00000000E+00  0.00000000E+00
