SiC-3C zincblende : mp-8062
1.0
   4.3539932475828609    0.0000000000000000    0.0000000000000003
   0.0000000000000007    4.3539932475828609    0.0000000000000003
   0.0000000000000000    0.0000000000000000    4.3539932475828609
Si C
4 4
direct
   0.7500000000000000    0.2500000000000000    0.7500000000000000 Si4+
   0.7500000000000000    0.7500000000000000    0.2500000000000000 Si4+
   0.2500000000000000    0.2500000000000000    0.2500000000000000 Si4+
   0.2500000000000000    0.7500000000000000    0.7500000000000000 Si4+
   0.0000000000000000    0.0000000000000000    0.0000000000000000 C4-
   0.0000000000000000    0.5000000000000000    0.5000000000000000 C4-
   0.5000000000000000    0.0000000000000000    0.5000000000000000 C4-
   0.5000000000000000    0.5000000000000000    0.0000000000000000 C4-
