SiC-3C rock salt : mp-1002206
1.0
   4.0502000000000002    0.0000000000000000    0.0000000000000002
   0.0000000000000007    4.0502000000000002    0.0000000000000002
   0.0000000000000000    0.0000000000000000    4.0502000000000002
Si C
4 4
direct
   0.0000000000000000    0.0000000000000000    0.0000000000000000 Si4+
   0.0000000000000000    0.5000000000000000    0.5000000000000000 Si4+
   0.5000000000000000    0.0000000000000000    0.5000000000000000 Si4+
   0.5000000000000000    0.5000000000000000    0.0000000000000000 Si4+
   0.5000000000000000    0.0000000000000000    0.0000000000000000 C4-
   0.5000000000000000    0.5000000000000000    0.5000000000000000 C4-
   0.0000000000000000    0.0000000000000000    0.5000000000000000 C4-
   0.0000000000000000    0.5000000000000000    0.0000000000000000 C4-
