SiC-6H : mp-7631
1.0
   1.5383105051063497   -2.6644319526611402    0.0000000000000000
   1.5383105051063497    2.6644319526611402    0.0000000000000000
   0.0000000000000000    0.0000000000000000   15.0980843199999999
Si C
6 6
direct
   0.3333333333333333    0.6666666666666666    0.8329861499999999 Si4+
   0.6666666666666667    0.3333333333333333    0.3329861500000000 Si4+
   0.6666666666666666    0.3333333333333333    0.6665005999999999 Si4+
   0.3333333333333333    0.6666666666666666    0.1665006000000000 Si4+
   0.0000000000000000    0.0000000000000000    0.4997294199999999 Si4+
   0.0000000000000000    0.0000000000000000    0.9997294199999999 Si4+
   0.0000000000000000    0.0000000000000000    0.8743664099999999 C4-
   0.0000000000000000    0.0000000000000000    0.3743664099999999 C4-
   0.3333333333333333    0.6666666666666666    0.7079967799999999 C4-
   0.6666666666666667    0.3333333333333333    0.2079967799999998 C4-
   0.6666666666666666    0.3333333333333333    0.5415216399999999 C4-
   0.3333333333333333    0.6666666666666666    0.0415216400000000 C4-
