ALGO = Fast
Prec = Accurate
EDIFF = 1E-6
ENCUT = 520

IBRION = 2
ISIF = 3
ISMEAR = -5

LREAL = Auto
LWAVE = .FALSE.
LCHARG = .FALSE.

NELM = 100
NSW = 99
